SDVRP instances/custom_instances/p03_3_split0.vrp
NAME:p03_3_split
BEST_KNOWN: 0
COMMENT: 0
DIMENSION: 465
CAPACITY: 200
EDGE_WEIGHT_FORMAT: FUNCTION
EDGE_WEIGHT_TYPE: EXACT_2D
NODE_COORD_SECTION
1 0.00000 0.00000
2 49 -24
3 49 -24
4 49 -24
5 49 -24
6 49 -24
7 49 -24
8 -23 41
9 -23 41
10 -23 41
11 -23 41
12 -23 41
13 -23 41
14 48 -24
15 48 -24
16 48 -24
17 48 -24
18 48 -24
19 -38 -31
20 -38 -31
21 -38 -31
22 -36 -2
23 -36 -2
24 -36 -2
25 -36 -2
26 -36 -2
27 -21 -1
28 -21 -1
29 -21 -1
30 -21 -1
31 -21 -1
32 -21 -1
33 32 6
34 32 6
35 32 6
36 32 6
37 10 5
38 10 5
39 10 5
40 10 5
41 -49 -18
42 -49 -18
43 -49 -18
44 -49 -18
45 -49 -18
46 28 13
47 28 13
48 28 13
49 48 -22
50 48 -22
51 48 -22
52 48 -22
53 48 -22
54 43 32
55 43 32
56 43 32
57 43 32
58 -2 -38
59 -2 -38
60 -2 -38
61 32 -49
62 32 -49
63 41 -26
64 41 -26
65 41 -26
66 41 -26
67 41 -26
68 41 -26
69 -29 14
70 -29 14
71 -29 14
72 -29 14
73 -29 14
74 2 -47
75 2 -47
76 2 -47
77 2 -47
78 2 -47
79 2 -47
80 2 -47
81 -11 8
82 -11 8
83 -11 8
84 -11 8
85 -11 8
86 -5 15
87 -5 15
88 -5 15
89 -5 15
90 -3 -9
91 -3 -9
92 -3 -9
93 -3 -9
94 -3 -9
95 15 46
96 15 46
97 15 46
98 -44 28
99 -44 28
100 -44 28
101 -44 28
102 -44 28
103 -44 28
104 -22 15
105 47 14
106 47 14
107 47 14
108 47 14
109 47 14
110 2 -46
111 2 -46
112 2 -46
113 -4 26
114 -4 26
115 -4 26
116 -4 26
117 -4 26
118 -4 26
119 29 -35
120 29 -35
121 29 -35
122 42 41
123 42 41
124 42 41
125 42 41
126 42 41
127 42 41
128 42 41
129 -5 -12
130 -5 -12
131 -5 -12
132 -5 -12
133 -5 -12
134 19 11
135 19 11
136 19 11
137 19 11
138 27 -11
139 27 -11
140 27 -11
141 27 -11
142 27 -11
143 27 -11
144 -48 -22
145 -48 -22
146 -48 -22
147 -48 -22
148 -19 -22
149 -19 -22
150 -19 -22
151 -19 -22
152 -19 -22
153 -19 -22
154 -41 -18
155 -41 -18
156 -41 -18
157 -41 -18
158 -41 -18
159 -41 -18
160 19 15
161 19 15
162 19 15
163 -30 -4
164 -30 -4
165 -30 -4
166 -30 -4
167 -30 -4
168 -30 -4
169 -30 -4
170 -26 49
171 -26 49
172 -26 49
173 -26 49
174 -45 35
175 -45 35
176 -45 35
177 -48 4
178 -48 4
179 -48 4
180 -48 4
181 -48 4
182 -48 4
183 -34 -39
184 -34 -39
185 -34 -39
186 -34 -39
187 -13 -47
188 -13 -47
189 -13 -47
190 -13 -47
191 -17 32
192 -17 32
193 -17 32
194 -17 32
195 -17 32
196 -17 32
197 -17 32
198 -17 32
199 21 -32
200 21 -32
201 21 -32
202 21 -32
203 22 16
204 23 29
205 23 29
206 23 29
207 10 -47
208 10 -47
209 10 -47
210 10 -47
211 10 -47
212 10 -47
213 -47 -18
214 -47 -18
215 -47 -18
216 -47 -18
217 -47 -18
218 18 39
219 18 39
220 18 39
221 18 39
222 -20 -50
223 -20 -50
224 -20 -50
225 -20 -50
226 -20 -50
227 -20 -50
228 3 13
229 3 13
230 -44 -25
231 -44 -25
232 -44 -25
233 -44 -25
234 -44 -25
235 -44 -25
236 45 49
237 45 49
238 45 49
239 45 49
240 45 49
241 45 49
242 -1 -27
243 -1 -27
244 -1 -27
245 -1 -27
246 -1 -27
247 -1 -27
248 -6 33
249 -6 33
250 -6 33
251 -6 33
252 -6 33
253 -10 17
254 -10 17
255 -10 17
256 -10 17
257 -10 17
258 -10 17
259 -10 17
260 14 34
261 14 34
262 7 -2
263 7 -2
264 7 -2
265 7 -2
266 -26 29
267 -26 29
268 -26 29
269 -26 29
270 26 -47
271 26 -47
272 -32 37
273 -32 37
274 -32 37
275 -4 -42
276 -4 -42
277 -4 -42
278 -4 -42
279 -27 28
280 -27 28
281 -27 28
282 -27 28
283 26 47
284 26 47
285 26 47
286 26 47
287 26 47
288 26 47
289 -27 0
290 -27 0
291 -27 0
292 -2 -11
293 -2 -11
294 -2 -11
295 -2 -11
296 -2 -11
297 -2 -11
298 -48 -46
299 -48 -46
300 -41 22
301 -41 22
302 -41 22
303 -41 22
304 -4 -49
305 -4 -49
306 -4 -49
307 -4 -49
308 -27 30
309 -27 30
310 -27 30
311 -27 30
312 -27 30
313 -27 30
314 26 -29
315 26 -29
316 26 -29
317 26 -29
318 26 -29
319 26 -29
320 -6 -26
321 -6 -26
322 -6 -26
323 -6 -26
324 -6 -26
325 -6 -26
326 -6 -26
327 -44 -24
328 -44 -24
329 -44 -24
330 -44 -24
331 -44 -24
332 -44 -24
333 21 -19
334 21 -19
335 21 -19
336 21 -19
337 21 -19
338 43 -6
339 43 -6
340 43 -6
341 43 -6
342 43 -6
343 -11 16
344 -11 16
345 -11 16
346 -11 16
347 -11 16
348 -11 16
349 -37 -35
350 -37 -35
351 -37 -35
352 -6 -36
353 -6 -36
354 46 -33
355 46 -33
356 46 -33
357 -13 -28
358 -13 -28
359 0 -20
360 0 -20
361 0 -20
362 -8 1
363 -8 1
364 -8 1
365 -8 1
366 -8 1
367 -8 1
368 -9 36
369 -9 36
370 -9 36
371 -9 36
372 -9 36
373 -18 12
374 -18 12
375 -18 12
376 -3 -7
377 -3 -7
378 -3 -7
379 -3 -7
380 -3 6
381 -3 6
382 -3 6
383 -3 6
384 -3 6
385 -28 -29
386 -28 -29
387 -28 -29
388 -28 -29
389 -28 -29
390 -28 -29
391 -28 -29
392 -28 -29
393 22 -10
394 22 -10
395 22 -10
396 22 -10
397 -22 -32
398 -22 -32
399 -22 -32
400 -22 -32
401 -22 -32
402 -36 -25
403 -36 -25
404 -36 -25
405 44 -3
406 44 -3
407 44 -3
408 44 -3
409 44 -3
410 4 -27
411 4 -27
412 4 -27
413 4 -27
414 -15 45
415 -15 45
416 -15 45
417 -15 45
418 -15 45
419 -15 45
420 -15 45
421 -15 45
422 37 -2
423 37 -2
424 37 -2
425 37 -2
426 37 -2
427 37 -2
428 23 28
429 23 28
430 23 28
431 23 28
432 23 28
433 23 28
434 23 28
435 -36 -16
436 -36 -16
437 -36 -16
438 -19 -25
439 -19 -25
440 -19 -25
441 -19 -25
442 -19 -25
443 -19 -25
444 15 5
445 15 5
446 15 5
447 -44 -21
448 -44 -21
449 -44 -21
450 -44 -21
451 -44 -21
452 -44 -21
453 -44 -21
454 -44 -21
455 -39 35
456 -39 35
457 -39 35
458 -13 -22
459 -13 -22
460 -13 -22
461 -13 -22
462 -13 -22
463 -13 -22
464 -13 -22
465 -13 -22
DEMAND_SECTION
1 0
2 40
3 2
4 2
5 2
6 2
7 1
8 40
9 40
10 10
11 2
12 2
13 2
14 40
15 40
16 10
17 2
18 2
19 40
20 40
21 2
22 40
23 2
24 2
25 2
26 2
27 40
28 10
29 2
30 2
31 2
32 2
33 20
34 2
35 2
36 2
37 40
38 10
39 2
40 2
41 20
42 10
43 2
44 2
45 2
46 40
47 40
48 2
49 40
50 40
51 10
52 2
53 1
54 40
55 2
56 2
57 1
58 40
59 40
60 1
61 40
62 2
63 40
64 10
65 2
66 2
67 2
68 1
69 40
70 40
71 10
72 2
73 1
74 40
75 10
76 2
77 2
78 2
79 2
80 1
81 40
82 20
83 2
84 2
85 1
86 40
87 20
88 2
89 1
90 40
91 20
92 2
93 2
94 1
95 40
96 40
97 20
98 40
99 20
100 10
101 2
102 2
103 2
104 40
105 40
106 40
107 2
108 2
109 1
110 20
111 10
112 1
113 40
114 40
115 10
116 2
117 2
118 1
119 40
120 20
121 10
122 40
123 10
124 2
125 2
126 2
127 2
128 1
129 20
130 2
131 2
132 2
133 1
134 40
135 40
136 2
137 2
138 40
139 40
140 2
141 2
142 2
143 2
144 40
145 40
146 10
147 1
148 40
149 40
150 10
151 2
152 2
153 1
154 40
155 2
156 2
157 2
158 2
159 1
160 40
161 20
162 1
163 40
164 40
165 2
166 2
167 2
168 2
169 1
170 40
171 20
172 10
173 1
174 40
175 10
176 2
177 40
178 10
179 2
180 2
181 2
182 2
183 40
184 40
185 2
186 1
187 40
188 10
189 2
190 2
191 40
192 40
193 10
194 2
195 2
196 2
197 2
198 1
199 40
200 20
201 2
202 1
203 40
204 20
205 10
206 1
207 40
208 20
209 10
210 2
211 2
212 2
213 40
214 20
215 2
216 2
217 2
218 20
219 10
220 2
221 2
222 40
223 10
224 2
225 2
226 2
227 2
228 20
229 10
230 40
231 40
232 10
233 2
234 2
235 2
236 20
237 2
238 2
239 2
240 2
241 1
242 40
243 20
244 10
245 2
246 2
247 2
248 40
249 40
250 10
251 2
252 2
253 40
254 40
255 2
256 2
257 2
258 2
259 1
260 40
261 20
262 20
263 2
264 2
265 1
266 40
267 20
268 2
269 2
270 40
271 20
272 40
273 40
274 20
275 40
276 20
277 2
278 2
279 20
280 10
281 2
282 1
283 40
284 20
285 2
286 2
287 2
288 2
289 20
290 10
291 1
292 40
293 40
294 10
295 2
296 2
297 1
298 40
299 40
300 40
301 40
302 10
303 1
304 40
305 40
306 10
307 2
308 20
309 10
310 2
311 2
312 2
313 2
314 40
315 20
316 10
317 2
318 2
319 2
320 20
321 10
322 2
323 2
324 2
325 2
326 1
327 40
328 40
329 2
330 2
331 2
332 2
333 40
334 40
335 2
336 2
337 1
338 40
339 20
340 10
341 2
342 2
343 40
344 40
345 10
346 2
347 2
348 1
349 40
350 10
351 2
352 40
353 10
354 20
355 10
356 2
357 40
358 10
359 20
360 10
361 1
362 40
363 40
364 10
365 2
366 2
367 1
368 40
369 40
370 10
371 2
372 2
373 40
374 40
375 2
376 40
377 10
378 2
379 1
380 40
381 20
382 2
383 2
384 2
385 40
386 20
387 10
388 2
389 2
390 2
391 2
392 1
393 40
394 20
395 10
396 2
397 20
398 2
399 2
400 2
401 2
402 40
403 2
404 1
405 40
406 10
407 2
408 2
409 1
410 40
411 40
412 10
413 2
414 40
415 40
416 10
417 2
418 2
419 2
420 2
421 1
422 40
423 40
424 2
425 2
426 2
427 2
428 40
429 40
430 10
431 2
432 2
433 2
434 2
435 40
436 40
437 10
438 40
439 40
440 10
441 2
442 2
443 2
444 40
445 10
446 1
447 40
448 20
449 10
450 2
451 2
452 2
453 2
454 1
455 40
456 20
457 2
458 40
459 20
460 10
461 2
462 2
463 2
464 2
465 1
DEPOT_SECTION
1
-1
EOF