SDVRP instances/custom_instances/p03_3_split0.sol
464 -13 15 16 17 14 355 353 354 118 119 120 316 317 -22 23 21 25 24 176 180 177 178 181 179 299 300 302 301 -33 32 34 35 404 405 407 408 406 339 340 341 337 338 425 424 422 -37 38 39 36 443 444 445 -45 108 106 105 104 107 421 426 423 -47 46 53 56 54 55 125 121 126 124 127 123 122 238 236 237 240 239 235 203 205 -48 49 50 51 52 2 3 1 4 5 6 65 64 66 62 63 67 -57 59 58 277 274 276 275 352 351 325 -71 68 69 72 70 281 280 279 278 309 308 265 268 266 -83 82 84 372 374 373 103 86 88 85 87 -99 101 100 98 97 102 174 175 173 454 456 455 -109 110 111 75 79 73 78 74 77 76 305 304 306 303 294 295 296 -114 116 113 117 112 115 250 251 247 249 248 -136 135 133 134 202 161 159 160 -150 147 151 152 149 148 441 439 437 440 442 438 -157 155 158 145 144 146 143 43 40 41 44 42 213 212 215 214 216 -166 168 164 165 162 163 167 288 289 290 26 29 30 27 31 28 363 366 365 -170 171 172 169 271 272 273 310 307 311 312 267 -187 189 188 186 224 223 225 226 221 222 297 298 -197 196 195 193 191 190 192 194 370 371 368 369 367 -198 201 313 314 315 318 336 335 333 334 332 -200 199 61 60 269 270 211 207 209 206 210 208 -227 259 219 217 218 204 433 428 430 429 432 427 431 -228 94 96 95 282 285 283 286 284 287 220 260 -230 229 231 234 232 233 327 329 328 326 330 331 156 154 436 -254 256 11 10 12 7 8 9 414 418 420 416 419 413 415 417 -261 262 264 263 137 140 142 139 141 138 394 392 393 395 -291 293 292 90 89 91 93 92 377 375 378 -319 320 322 324 323 321 357 356 457 463 461 458 464 459 130 129 131 128 132 376 -344 343 347 345 342 346 253 255 252 258 257 380 -360 358 359 242 245 246 244 243 241 409 410 412 411 -364 362 361 80 81 379 383 381 382 -387 386 349 348 350 182 185 183 184 396 397 400 398 399 462 460 -388 391 384 389 390 385 18 20 19 401 403 402 -435 434 153 448 451 449 452 446 453 450 447 0 





OBJ=
3098.040
BEST_KNOWN=
0.000